data/solutions/recovery/degenerate/intermediate/flexible/degenerate_intermediate_instance23/53.sol
Elapsed time: 100.09
Upper bound: 226768861.0
Planning weighted value: 9.29515299346e+11
C[0]=226768861.0
C[1]=226766578.0
C[2]=226758799.0
C[3]=226540845.0
C[4]=226441181.0
C[5]=226321026.0
C[6]=225752173.0
C[7]=225348523.0
C[8]=224240655.0
C[9]=223828017.0
C[10]=223639242.0
C[11]=0.0
y[0]=10
y[1]=5
y[2]=10
y[3]=9
y[4]=10
y[5]=4
y[6]=8
y[7]=2
y[8]=2
y[9]=7
y[10]=3
y[11]=5
y[12]=3
y[13]=5
y[14]=2
y[15]=3
y[16]=6
y[17]=9
y[18]=1
y[19]=10
y[20]=7
y[21]=9
y[22]=1
y[23]=3
y[24]=5
y[25]=7
y[26]=0
y[27]=2
y[28]=10
y[29]=2
y[30]=6
y[31]=4
y[32]=9
y[33]=0
y[34]=3
y[35]=6
y[36]=0
y[37]=6
y[38]=6
y[39]=4
y[40]=5
y[41]=1
y[42]=9
y[43]=1
y[44]=4
y[45]=8
y[46]=4
y[47]=8
y[48]=4
y[49]=6
y[50]=0
y[51]=5
y[52]=1
y[53]=8
y[54]=8
y[55]=4
y[56]=6
y[57]=9
y[58]=7
y[59]=0
y[60]=0
y[61]=3
y[62]=2
y[63]=7
y[64]=10
y[65]=4
y[66]=3
y[67]=1
y[68]=8
y[69]=7
y[70]=0
y[71]=7
y[72]=1
y[73]=4
y[74]=4
y[75]=2
y[76]=3
y[77]=6
