data/solutions/recovery/degenerate/intermediate/flexible/degenerate_intermediate_instance23/53.log

Log started (V12.6.3.0) Sat Apr 21 15:57:18 2018

New value for default parallel thread count: 1

Problem '/tmp/tmpJZyOfK.pyomo.lp' read.
Read time = 0.01 sec. (0.84 ticks)

Problem name         : /tmp/tmpJZyOfK.pyomo.lp
Objective sense      : Minimize
Variables            :     950  [Nneg: 1,  Binary: 936,  General Integer: 13]
Objective nonzeros   :       1
Linear constraints   :     182  [Less: 90,  Equal: 92]
  Nonzeros           :   60259
  RHS nonzeros       :     157

Variables            : Min LB: 0.000000         Max UB: 1.000000       
Objective nonzeros   : Min   : 1.000000         Max   : 1.000000       
Linear constraints   :
  Nonzeros           : Min   : 1.000000         Max   : 6.145599e+07   
  RHS nonzeros       : Min   : 1.000000         Max   : 8.000000       
Tried aggregator 2 times.
MIP Presolve eliminated 81 rows and 140 columns.
Aggregator did 6 substitutions.
Reduced MIP has 95 rows, 804 columns, and 2237 nonzeros.
Reduced MIP has 792 binaries, 12 generals, 0 SOSs, and 0 indicators.
Presolve time = 0.01 sec. (10.91 ticks)
Found incumbent of value 8.1500364e+08 after 0.01 sec. (12.44 ticks)
Probing time = 0.00 sec. (1.59 ticks)
Tried aggregator 1 time.
Reduced MIP has 95 rows, 804 columns, and 2237 nonzeros.
Reduced MIP has 792 binaries, 12 generals, 0 SOSs, and 0 indicators.
Presolve time = 0.00 sec. (1.14 ticks)
Probing time = 0.00 sec. (1.59 ticks)
Clique table members: 72.
MIP emphasis: balance optimality and feasibility.
MIP search method: dynamic search.
Parallel mode: none, using 1 thread.
Root relaxation solution time = 0.00 sec. (1.45 ticks)

        Nodes                                         Cuts/
   Node  Left     Objective  IInf  Best Integer    Best Bound    ItCnt     Gap

*     0+    0                       8.15004e+08        0.0000           100.00%
      0     0   2.25673e+08    27   8.15004e+08   2.25673e+08      132   72.31%
      0     0   2.25673e+08    21   8.15004e+08      Fract: 3      140   72.31%
      0     0   2.25673e+08    31   8.15004e+08      Fract: 9      164   72.31%
*     0+    0                       2.77195e+08   2.25673e+08            18.59%
*     0+    0                       2.52833e+08   2.25673e+08            10.74%
*     0+    0                       2.42001e+08   2.25673e+08             6.75%
*     0+    0                       2.40749e+08   2.25673e+08             6.26%
      0     2   2.25673e+08    16   2.40749e+08   2.25673e+08      164    6.26%
Elapsed time = 0.06 sec. (66.34 ticks, tree = 0.01 MB, solutions = 5)
*    30+   30                       2.38152e+08   2.25673e+08             5.24%
*    80+   63                       2.34767e+08   2.25673e+08             3.87%
*   110+   81                       2.33939e+08   2.25673e+08             3.53%
*   210+  162                       2.33367e+08   2.25673e+08             3.30%
*   320+  214                       2.31695e+08   2.25673e+08             2.60%
    996   824   2.25673e+08    20   2.31695e+08   2.25673e+08     4191    2.60%
*   997+  784                       2.30879e+08   2.25673e+08             2.25%
*   997+  784                       2.30874e+08   2.25673e+08             2.25%
    997   786   2.25673e+08    23   2.30874e+08   2.25673e+08     4217    2.25%
    998   787   2.25673e+08    18   2.30874e+08   2.25673e+08     4222    2.25%
*   999+  524                       2.30408e+08   2.25673e+08             2.05%
*   999+  349                       2.29468e+08   2.25673e+08             1.65%
*   999+  232                       2.29222e+08   2.25673e+08             1.55%
    999   233   2.25673e+08    19   2.29222e+08   2.25673e+08     4692    1.55%
   1000   234   2.25673e+08    19   2.29222e+08   2.25673e+08     4707    1.55%
   1001   235   2.25673e+08    20   2.29222e+08   2.25673e+08     4714    1.55%
   1002   235   2.25673e+08    19   2.29222e+08   2.25673e+08     4715    1.55%
   1003   236   2.25673e+08    19   2.29222e+08   2.25673e+08     4721    1.55%
   1004   236   2.25673e+08    19   2.29222e+08   2.25673e+08     4728    1.55%
   1299   224   2.25673e+08    17   2.29222e+08   2.25673e+08     5887    1.55%
Elapsed time = 0.84 sec. (1044.74 ticks, tree = 0.12 MB, solutions = 15)
   2550  1050   2.25673e+08    17   2.29222e+08   2.25673e+08    10528    1.55%
   2551  1051   2.25673e+08    18   2.29222e+08   2.25673e+08    10531    1.55%
   2552  1052   2.25673e+08    18   2.29222e+08   2.25673e+08    10532    1.55%
   2553  1053   2.25673e+08    18   2.29222e+08   2.25673e+08    10533    1.55%
   2554  1054   2.25673e+08    18   2.29222e+08   2.25673e+08    10534    1.55%
   2555  1055   2.25823e+08    31   2.29222e+08   2.25673e+08    10540    1.55%
   2556  1056   2.25920e+08    28   2.29222e+08   2.25673e+08    10541    1.55%
   2557  1057   2.25920e+08    26   2.29222e+08   2.25673e+08    10542    1.55%
   2558  1058   2.25920e+08    26   2.29222e+08   2.25673e+08    10547    1.55%
   2559  1059   2.25920e+08    32   2.29222e+08   2.25673e+08    10556    1.55%
Elapsed time = 1.65 sec. (2000.89 ticks, tree = 0.64 MB, solutions = 15)
   5815  3654   2.25980e+08    32   2.29222e+08   2.25673e+08    24931    1.55%
   5816  3655   2.25989e+08    33   2.29222e+08   2.25673e+08    24933    1.55%
   5817  3656   2.25992e+08    35   2.29222e+08   2.25673e+08    24935    1.55%
   5818  3657   2.26016e+08    34   2.29222e+08   2.25673e+08    24939    1.55%
   5819  3658   2.26026e+08    32   2.29222e+08   2.25673e+08    24940    1.55%
   5820  3659   2.26026e+08    32   2.29222e+08   2.25673e+08    24941    1.55%
   5821  3660   2.26029e+08    32   2.29222e+08   2.25673e+08    24943    1.55%
   5822  3661   2.26029e+08    32   2.29222e+08   2.25673e+08    24944    1.55%
   5823  3662   2.26034e+08    32   2.29222e+08   2.25673e+08    24946    1.55%
   5824  3663   2.26034e+08    32   2.29222e+08   2.25673e+08    24947    1.55%
Elapsed time = 2.41 sec. (2956.98 ticks, tree = 2.19 MB, solutions = 15)
   9749  7006   2.25796e+08    30   2.29222e+08   2.25673e+08    42125    1.55%
   9750  7007   2.25797e+08    30   2.29222e+08   2.25673e+08    42126    1.55%
   9751  7008   2.25814e+08    30   2.29222e+08   2.25673e+08    42130    1.55%
   9752  7009   2.25835e+08    30   2.29222e+08   2.25673e+08    42131    1.55%
   9753  7010   2.25860e+08    30   2.29222e+08   2.25673e+08    42132    1.55%
   9754  7011   2.25862e+08    30   2.29222e+08   2.25673e+08    42133    1.55%
   9755  7012   2.25862e+08    30   2.29222e+08   2.25673e+08    42134    1.55%
   9756  7013   2.25872e+08    30   2.29222e+08   2.25673e+08    42137    1.55%
   9757  7014   2.25872e+08    30   2.29222e+08   2.25673e+08    42141    1.55%
   9758  7015   2.25872e+08    30   2.29222e+08   2.25673e+08    42142    1.55%
Elapsed time = 3.15 sec. (3913.00 ticks, tree = 4.14 MB, solutions = 15)
  13679 10432   2.25673e+08    32   2.29222e+08   2.25673e+08    61130    1.55%
  13680 10433   2.25673e+08    27   2.29222e+08   2.25673e+08    61140    1.55%
  13681 10434   2.25673e+08    28   2.29222e+08   2.25673e+08    61141    1.55%
  13682 10435   2.25673e+08    27   2.29222e+08   2.25673e+08    61148    1.55%
  13683 10436   2.25673e+08    27   2.29222e+08   2.25673e+08    61154    1.55%
  13684 10437   2.25673e+08    27   2.29222e+08   2.25673e+08    61155    1.55%
  13685 10438   2.25673e+08    26   2.29222e+08   2.25673e+08    61156    1.55%
  13686 10439   2.25673e+08    28   2.29222e+08   2.25673e+08    61159    1.55%
  13687 10440   2.25673e+08    26   2.29222e+08   2.25673e+08    61161    1.55%
  13688 10441   2.25673e+08    28   2.29222e+08   2.25673e+08    61163    1.55%
Elapsed time = 3.90 sec. (4869.10 ticks, tree = 6.27 MB, solutions = 15)
  17321 13543   2.26346e+08    29   2.29222e+08   2.25673e+08    82121    1.55%
  17322 13543   2.26346e+08    29   2.29222e+08   2.25673e+08    82126    1.55%
  17323 13544   2.26346e+08    29   2.29222e+08   2.25673e+08    82127    1.55%
  17324 13543        cutoff         2.29222e+08   2.25673e+08    82131    1.55%
  17325 13543   2.26415e+08    21   2.29222e+08   2.25673e+08    82146    1.55%
  17326 13542        cutoff         2.29222e+08   2.25673e+08    82150    1.55%
  17327 13541        cutoff         2.29222e+08   2.25673e+08    82245    1.55%
  17328 13541   2.25673e+08    20   2.29222e+08   2.25673e+08    82262    1.55%
  17329 13542   2.25673e+08    23   2.29222e+08   2.25673e+08    82271    1.55%
  17330 13543   2.25673e+08    23   2.29222e+08   2.25673e+08    82272    1.55%
Elapsed time = 4.64 sec. (5834.16 ticks, tree = 8.01 MB, solutions = 15)
  20228 15682   2.25673e+08    22   2.29222e+08   2.25673e+08   103535    1.55%
  20229 15683   2.25673e+08    26   2.29222e+08   2.25673e+08   103539    1.55%
  20230 15684   2.25673e+08    26   2.29222e+08   2.25673e+08   103540    1.55%
  20231 15685   2.25673e+08    22   2.29222e+08   2.25673e+08   103544    1.55%
  20232 15686   2.25673e+08    21   2.29222e+08   2.25673e+08   103545    1.55%
  20233 15687   2.25673e+08    23   2.29222e+08   2.25673e+08   103551    1.55%
  20234 15688   2.25673e+08    23   2.29222e+08   2.25673e+08   103580    1.55%
  20235 15689   2.25673e+08    23   2.29222e+08   2.25673e+08   103619    1.55%
  20236 15690   2.25673e+08    23   2.29222e+08   2.25673e+08   103621    1.55%
  20237 15691   2.25673e+08    21   2.29222e+08   2.25673e+08   103629    1.55%
Elapsed time = 5.38 sec. (6790.62 ticks, tree = 9.24 MB, solutions = 15)
  23436 18401   2.26019e+08    29   2.29222e+08   2.25673e+08   125082    1.55%
  23437 18402   2.26019e+08    33   2.29222e+08   2.25673e+08   125093    1.55%
  23438 18403   2.26019e+08    27   2.29222e+08   2.25673e+08   125097    1.55%
  23439 18404   2.26019e+08    28   2.29222e+08   2.25673e+08   125098    1.55%
  23440 18405   2.26019e+08    30   2.29222e+08   2.25673e+08   125107    1.55%
  23441 18406   2.26019e+08    30   2.29222e+08   2.25673e+08   125112    1.55%
  23442 18407   2.26060e+08    29   2.29222e+08   2.25673e+08   125114    1.55%
  23443 18408   2.26060e+08    30   2.29222e+08   2.25673e+08   125123    1.55%
  23444 18408   2.26060e+08    29   2.29222e+08   2.25673e+08   125129    1.55%
  23445 18409   2.26060e+08    30   2.29222e+08   2.25673e+08   125136    1.55%
Elapsed time = 6.10 sec. (7746.77 ticks, tree = 11.21 MB, solutions = 15)
  26160 20759   2.25673e+08    29   2.29222e+08   2.25673e+08   145821    1.55%
  26161 20760   2.25673e+08    29   2.29222e+08   2.25673e+08   145822    1.55%
  26162 20761   2.25673e+08    28   2.29222e+08   2.25673e+08   145823    1.55%
  26163 20762   2.25673e+08    27   2.29222e+08   2.25673e+08   145824    1.55%
  26164 20763   2.25673e+08    29   2.29222e+08   2.25673e+08   145829    1.55%
  26165 20764   2.25673e+08    27   2.29222e+08   2.25673e+08   145831    1.55%
  26166 20765   2.25673e+08    30   2.29222e+08   2.25673e+08   145839    1.55%
  26167 20766   2.25673e+08    26   2.29222e+08   2.25673e+08   145851    1.55%
  26168 20767   2.25673e+08    26   2.29222e+08   2.25673e+08   145858    1.55%
  26169 20768   2.25673e+08    27   2.29222e+08   2.25673e+08   145871    1.55%
Elapsed time = 6.83 sec. (8711.11 ticks, tree = 12.56 MB, solutions = 15)
  29488 23792   2.25673e+08    23   2.29222e+08   2.25673e+08   166251    1.55%
  29489 23793   2.25673e+08    23   2.29222e+08   2.25673e+08   166252    1.55%
  29490 23794   2.25673e+08    23   2.29222e+08   2.25673e+08   166254    1.55%
  29491 23795   2.25673e+08    23   2.29222e+08   2.25673e+08   166258    1.55%
  29492 23796   2.25673e+08    23   2.29222e+08   2.25673e+08   166259    1.55%
  29493 23797   2.25673e+08    26   2.29222e+08   2.25673e+08   166265    1.55%
  29494 23798   2.25673e+08    25   2.29222e+08   2.25673e+08   166266    1.55%
  29495 23799   2.25673e+08    23   2.29222e+08   2.25673e+08   166268    1.55%
  29496 23800   2.25673e+08    23   2.29222e+08   2.25673e+08   166269    1.55%
* 29864 23821      integral     0   2.29104e+08   2.25673e+08   167889    1.50%
  36678 29663   2.25673e+08    38   2.29104e+08   2.25673e+08   224547    1.50%
Elapsed time = 9.65 sec. (12525.98 ticks, tree = 17.49 MB, solutions = 16)
  42359 33866        cutoff         2.29104e+08   2.25673e+08   306456    1.50%
  42360 33867   2.26668e+08    30   2.29104e+08   2.25673e+08   306574    1.50%
  42361 33868   2.27355e+08    29   2.29104e+08   2.25673e+08   306575    1.50%
  42362 33869   2.27796e+08    27   2.29104e+08   2.25673e+08   306590    1.50%
  42363 33870   2.28890e+08    16   2.29104e+08   2.25673e+08   306601    1.50%
  42364 33869        cutoff         2.29104e+08   2.25673e+08   306604    1.50%
  42365 33869   2.28890e+08    19   2.29104e+08   2.25673e+08   306608    1.50%
  42366 33868        cutoff         2.29104e+08   2.25673e+08   306609    1.50%
  42367 33869   2.25673e+08    28   2.29104e+08   2.25673e+08   306658    1.50%
  42368 33870   2.25673e+08    29   2.29104e+08   2.25673e+08   306669    1.50%
Elapsed time = 12.43 sec. (16354.46 ticks, tree = 20.93 MB, solutions = 16)
  48055 38283   2.25761e+08    37   2.29104e+08   2.25673e+08   385062    1.50%
  48056 38284   2.25761e+08    36   2.29104e+08   2.25673e+08   385063    1.50%
  48057 38285   2.25761e+08    35   2.29104e+08   2.25673e+08   385064    1.50%
  48058 38286   2.25761e+08    35   2.29104e+08   2.25673e+08   385069    1.50%
  48059 38287   2.25761e+08    33   2.29104e+08   2.25673e+08   385080    1.50%
  48060 38288   2.25761e+08    33   2.29104e+08   2.25673e+08   385081    1.50%
  48061 38289   2.25761e+08    35   2.29104e+08   2.25673e+08   385093    1.50%
  48062 38289   2.26850e+08    30   2.29104e+08   2.25673e+08   385105    1.50%
  48063 38288        cutoff         2.29104e+08   2.25673e+08   385106    1.50%
  48064 38289   2.25673e+08    33   2.29104e+08   2.25673e+08   385222    1.50%
Elapsed time = 15.35 sec. (20185.60 ticks, tree = 23.56 MB, solutions = 16)
* 50366 38712      integral     0   2.28575e+08   2.25673e+08   411015    1.27%
* 50466+38458                       2.28405e+08   2.25673e+08             1.20%
  54199 41502   2.25673e+08    24   2.28405e+08   2.25673e+08   466035    1.20%
  54200 41503   2.25673e+08    23   2.28405e+08   2.25673e+08   466042    1.20%
  54201 41504   2.25673e+08    23   2.28405e+08   2.25673e+08   466047    1.20%
  54202 41505   2.25673e+08    24   2.28405e+08   2.25673e+08   466060    1.20%
  54203 41506   2.25673e+08    25   2.28405e+08   2.25673e+08   466070    1.20%
  54204 41507   2.25673e+08    24   2.28405e+08   2.25673e+08   466072    1.20%
  54205 41508   2.25673e+08    24   2.28405e+08   2.25673e+08   466077    1.20%
  54206 41509   2.25673e+08    22   2.28405e+08   2.25673e+08   466081    1.20%
  54207 41510   2.25673e+08    29   2.28405e+08   2.25673e+08   466087    1.20%
  54208 41511   2.25673e+08    28   2.28405e+08   2.25673e+08   466098    1.20%
Elapsed time = 18.10 sec. (24004.75 ticks, tree = 25.44 MB, solutions = 18)
  60118 46183   2.27031e+08    24   2.28405e+08   2.25673e+08   543105    1.20%
  60119 46184   2.27031e+08    14   2.28405e+08   2.25673e+08   543135    1.20%
  60120 46185   2.27031e+08    14   2.28405e+08   2.25673e+08   543162    1.20%
  60121 46186   2.27031e+08    14   2.28405e+08   2.25673e+08   543195    1.20%
  60122 46187   2.27031e+08    15   2.28405e+08   2.25673e+08   543199    1.20%
  60123 46188   2.27031e+08    15   2.28405e+08   2.25673e+08   543200    1.20%
  60124 46189   2.27031e+08    15   2.28405e+08   2.25673e+08   543201    1.20%
  60125 46190   2.27031e+08    15   2.28405e+08   2.25673e+08   543206    1.20%
  60126 46191   2.27031e+08    12   2.28405e+08   2.25673e+08   543218    1.20%
  60127 46192   2.27031e+08    15   2.28405e+08   2.25673e+08   543271    1.20%
Elapsed time = 21.42 sec. (27835.81 ticks, tree = 28.28 MB, solutions = 18)
* 61599+46260                       2.28104e+08   2.25673e+08             1.07%
* 61599+43362                       2.27498e+08   2.25673e+08             0.80%
* 61699+38765                       2.26969e+08   2.25673e+08             0.57%
* 61699+38455                       2.26923e+08   2.25673e+08             0.55%
* 62099+37863                       2.26829e+08   2.25673e+08             0.51%
* 62399+37573                       2.26769e+08   2.25673e+08             0.48%
* 62499+37654                       2.26769e+08   2.25673e+08             0.48%
  65582 39861   2.25673e+08    20   2.26769e+08   2.25673e+08   613101    0.48%
  65583 39862   2.25673e+08    20   2.26769e+08   2.25673e+08   613102    0.48%
  65584 39863   2.25673e+08    20   2.26769e+08   2.25673e+08   613104    0.48%
  65585 39864   2.25673e+08    24   2.26769e+08   2.25673e+08   613105    0.48%
  65586 39865   2.25673e+08    24   2.26769e+08   2.25673e+08   613106    0.48%
  65587 39866   2.25673e+08    24   2.26769e+08   2.25673e+08   613108    0.48%
  65588 39867   2.25673e+08    23   2.26769e+08   2.25673e+08   613112    0.48%
  65589 39868   2.25673e+08    23   2.26769e+08   2.25673e+08   613121    0.48%
  65590 39869   2.25673e+08    21   2.26769e+08   2.25673e+08   613127    0.48%
  65591 39870   2.25673e+08    23   2.26769e+08   2.25673e+08   613130    0.48%
Elapsed time = 24.92 sec. (31652.83 ticks, tree = 24.22 MB, solutions = 25)
  72937 45270        cutoff         2.26769e+08   2.25673e+08   690450    0.48%
  72938 45269        cutoff         2.26769e+08   2.25673e+08   690466    0.48%
  72939 45270   2.25677e+08    26   2.26769e+08   2.25673e+08   690496    0.48%
  72940 45271   2.25677e+08    27   2.26769e+08   2.25673e+08   690501    0.48%
  72941 45272   2.25677e+08    29   2.26769e+08   2.25673e+08   690542    0.48%
  72942 45273   2.25677e+08    28   2.26769e+08   2.25673e+08   690552    0.48%
  72943 45274   2.25677e+08    29   2.26769e+08   2.25673e+08   690563    0.48%
  72944 45275   2.25677e+08    29   2.26769e+08   2.25673e+08   690565    0.48%
  72945 45276   2.25677e+08    29   2.26769e+08   2.25673e+08   690566    0.48%
  72946 45277   2.25677e+08    29   2.26769e+08   2.25673e+08   690567    0.48%
Elapsed time = 28.31 sec. (35474.48 ticks, tree = 27.56 MB, solutions = 25)
  79629 48774   2.25673e+08    22   2.26769e+08   2.25673e+08   770766    0.48%
  79630 48774   2.25891e+08    33   2.26769e+08   2.25673e+08   770786    0.48%
  79631 48775   2.25929e+08    28   2.26769e+08   2.25673e+08   770792    0.48%
  79632 48776   2.25932e+08    28   2.26769e+08   2.25673e+08   770793    0.48%
  79633 48777   2.25935e+08    28   2.26769e+08   2.25673e+08   770794    0.48%
  79634 48778   2.25935e+08    27   2.26769e+08   2.25673e+08   770795    0.48%
  79635 48778   2.25945e+08    27   2.26769e+08   2.25673e+08   770796    0.48%
  79636 48778   2.25946e+08    28   2.26769e+08   2.25673e+08   770800    0.48%
  79637 48778   2.25948e+08    27   2.26769e+08   2.25673e+08   770803    0.48%
  79638 48778   2.26157e+08    25   2.26769e+08   2.25673e+08   770809    0.48%
Elapsed time = 31.69 sec. (39293.53 ticks, tree = 29.76 MB, solutions = 25)
  86524 52168    infeasible         2.26769e+08   2.25673e+08   853976    0.48%
  86525 52168   2.25954e+08    35   2.26769e+08   2.25673e+08   854088    0.48%
  86526 52169   2.25955e+08    36   2.26769e+08   2.25673e+08   854103    0.48%
  86527 52170   2.25955e+08    32   2.26769e+08   2.25673e+08   854106    0.48%
  86528 52171   2.25955e+08    33   2.26769e+08   2.25673e+08   854107    0.48%
  86529 52172   2.25956e+08    34   2.26769e+08   2.25673e+08   854113    0.48%
  86530 52171        cutoff         2.26769e+08   2.25673e+08   854118    0.48%
  86531 52172   2.25960e+08    34   2.26769e+08   2.25673e+08   854120    0.48%
  86532 52173   2.25960e+08    33   2.26769e+08   2.25673e+08   854123    0.48%
  86533 52172        cutoff         2.26769e+08   2.25673e+08   854141    0.48%
Elapsed time = 35.06 sec. (43121.95 ticks, tree = 31.90 MB, solutions = 25)
  91997 53110   2.25673e+08    17   2.26769e+08   2.25673e+08   938697    0.48%
  91998 53111   2.25673e+08    19   2.26769e+08   2.25673e+08   938724    0.48%
  91999 53110        cutoff         2.26769e+08   2.25673e+08   938755    0.48%
  92000 53111   2.25673e+08    19   2.26769e+08   2.25673e+08   938766    0.48%
  92001 53112   2.25673e+08    19   2.26769e+08   2.25673e+08   938780    0.48%
  92002 53113   2.25673e+08    19   2.26769e+08   2.25673e+08   938781    0.48%
  92003 53114   2.25964e+08    29   2.26769e+08   2.25673e+08   938819    0.48%
  92004 53115   2.26033e+08    30   2.26769e+08   2.25673e+08   938822    0.48%
  92005 53116   2.26033e+08    31   2.26769e+08   2.25673e+08   938830    0.48%
  92006 53117   2.26040e+08    31   2.26769e+08   2.25673e+08   938831    0.48%
Elapsed time = 38.50 sec. (46942.56 ticks, tree = 32.53 MB, solutions = 25)
  98494 57104   2.25673e+08    21   2.26769e+08   2.25673e+08  1014760    0.48%
  98495 57105   2.25673e+08    21   2.26769e+08   2.25673e+08  1014767    0.48%
  98496 57106   2.25673e+08    23   2.26769e+08   2.25673e+08  1014779    0.48%
  98497 57107   2.25673e+08    21   2.26769e+08   2.25673e+08  1014782    0.48%
  98498 57108   2.25673e+08    22   2.26769e+08   2.25673e+08  1014793    0.48%
  98499 57109   2.25673e+08    22   2.26769e+08   2.25673e+08  1014794    0.48%
  98500 57110   2.25673e+08    25   2.26769e+08   2.25673e+08  1014804    0.48%
  98501 57111   2.25673e+08    23   2.26769e+08   2.25673e+08  1014817    0.48%
  98502 57112   2.25673e+08    22   2.26769e+08   2.25673e+08  1014825    0.48%
  98503 57113   2.25673e+08    22   2.26769e+08   2.25673e+08  1014831    0.48%
Elapsed time = 41.92 sec. (50761.65 ticks, tree = 35.02 MB, solutions = 25)
 105451 61151   2.25673e+08    23   2.26769e+08   2.25673e+08  1094622    0.48%
 105452 61152   2.25673e+08    22   2.26769e+08   2.25673e+08  1094623    0.48%
 105453 61153   2.25673e+08    23   2.26769e+08   2.25673e+08  1094641    0.48%
 105454 61154   2.25673e+08    22   2.26769e+08   2.25673e+08  1094642    0.48%
 105455 61155   2.25673e+08    22   2.26769e+08   2.25673e+08  1094643    0.48%
 105456 61156   2.25673e+08    22   2.26769e+08   2.25673e+08  1094644    0.48%
 105457 61157   2.25673e+08    22   2.26769e+08   2.25673e+08  1094645    0.48%
 105458 61158   2.25673e+08    20   2.26769e+08   2.25673e+08  1094648    0.48%
 105459 61159   2.25673e+08    20   2.26769e+08   2.25673e+08  1094649    0.48%
 105460 61160   2.25673e+08    24   2.26769e+08   2.25673e+08  1094652    0.48%
Elapsed time = 45.34 sec. (54578.38 ticks, tree = 37.58 MB, solutions = 25)
 110999 64317   2.26071e+08    26   2.26769e+08   2.25673e+08  1176685    0.48%
 111000 64317   2.26071e+08    26   2.26769e+08   2.25673e+08  1176686    0.48%
 111001 64317   2.26243e+08    26   2.26769e+08   2.25673e+08  1176687    0.48%
 111002 64316   2.26671e+08    26   2.26769e+08   2.25673e+08  1176689    0.48%
 111003 64315    infeasible         2.26769e+08   2.25673e+08  1176689    0.48%
 111004 64314        cutoff         2.26769e+08   2.25673e+08  1176724    0.48%
 111005 64313        cutoff         2.26769e+08   2.25673e+08  1176739    0.48%
 111006 64312        cutoff         2.26769e+08   2.25673e+08  1176761    0.48%
 111007 64311        cutoff         2.26769e+08   2.25673e+08  1176772    0.48%
 111008 64310        cutoff         2.26769e+08   2.25673e+08  1176798    0.48%
Elapsed time = 48.81 sec. (58404.50 ticks, tree = 39.53 MB, solutions = 25)
 117762 67636   2.26721e+08    29   2.26769e+08   2.25673e+08  1260069    0.48%
 117763 67637   2.26721e+08    27   2.26769e+08   2.25673e+08  1260071    0.48%
 117764 67638   2.26721e+08    28   2.26769e+08   2.25673e+08  1260110    0.48%
 117765 67639   2.26721e+08    29   2.26769e+08   2.25673e+08  1260137    0.48%
 117766 67640   2.26721e+08    33   2.26769e+08   2.25673e+08  1260139    0.48%
 117767 67639        cutoff         2.26769e+08   2.25673e+08  1260208    0.48%
 117768 67640   2.26721e+08    30   2.26769e+08   2.25673e+08  1260258    0.48%
 117769 67641   2.26721e+08    30   2.26769e+08   2.25673e+08  1260280    0.48%
 117770 67642   2.26721e+08    31   2.26769e+08   2.25673e+08  1260302    0.48%
 117771 67643   2.26721e+08    30   2.26769e+08   2.25673e+08  1260318    0.48%
Elapsed time = 52.25 sec. (62227.44 ticks, tree = 43.52 MB, solutions = 25)
 124095 71281   2.25673e+08    19   2.26769e+08   2.25673e+08  1339815    0.48%
 124096 71282   2.25673e+08    16   2.26769e+08   2.25673e+08  1339818    0.48%
 124097 71283   2.25673e+08    16   2.26769e+08   2.25673e+08  1339819    0.48%
 124098 71284   2.25673e+08    17   2.26769e+08   2.25673e+08  1339829    0.48%
 124099 71285   2.25673e+08    19   2.26769e+08   2.25673e+08  1339837    0.48%
 124100 71286   2.25673e+08    25   2.26769e+08   2.25673e+08  1339903    0.48%
 124101 71287   2.25673e+08    25   2.26769e+08   2.25673e+08  1339905    0.48%
 124102 71288   2.25673e+08    22   2.26769e+08   2.25673e+08  1339910    0.48%
 124103 71289   2.25673e+08    21   2.26769e+08   2.25673e+08  1339918    0.48%
 124104 71290   2.25673e+08    21   2.26769e+08   2.25673e+08  1339919    0.48%
Elapsed time = 55.68 sec. (66047.56 ticks, tree = 45.79 MB, solutions = 25)
 129651 73173   2.25673e+08    26   2.26769e+08   2.25673e+08  1426671    0.48%
 129652 73174   2.25673e+08    25   2.26769e+08   2.25673e+08  1426678    0.48%
 129653 73175   2.25673e+08    21   2.26769e+08   2.25673e+08  1426700    0.48%
 129654 73174        cutoff         2.26769e+08   2.25673e+08  1426724    0.48%
 129655 73173        cutoff         2.26769e+08   2.25673e+08  1426743    0.48%
 129656 73172        cutoff         2.26769e+08   2.25673e+08  1426844    0.48%
 129657 73171        cutoff         2.26769e+08   2.25673e+08  1426879    0.48%
 129658 73170        cutoff         2.26769e+08   2.25673e+08  1426980    0.48%
 129659 73171   2.25673e+08    17   2.26769e+08   2.25673e+08  1427074    0.48%
 129660 73172   2.25673e+08    19   2.26769e+08   2.25673e+08  1427078    0.48%
Elapsed time = 59.18 sec. (69877.49 ticks, tree = 47.00 MB, solutions = 25)
 136314 77662        cutoff         2.26769e+08   2.25673e+08  1511630    0.48%
 136315 77661        cutoff         2.26769e+08   2.25673e+08  1511735    0.48%
 136316 77662   2.25673e+08    27   2.26769e+08   2.25673e+08  1511813    0.48%
 136317 77663   2.25673e+08    24   2.26769e+08   2.25673e+08  1511827    0.48%
 136318 77664   2.25673e+08    27   2.26769e+08   2.25673e+08  1511893    0.48%
 136319 77663        cutoff         2.26769e+08   2.25673e+08  1511962    0.48%
 136320 77662        cutoff         2.26769e+08   2.25673e+08  1512064    0.48%
 136321 77661        cutoff         2.26769e+08   2.25673e+08  1512123    0.48%
 136322 77660        cutoff         2.26769e+08   2.25673e+08  1512160    0.48%
 136323 77659    infeasible         2.26769e+08   2.25673e+08  1512160    0.48%
Elapsed time = 62.60 sec. (73709.41 ticks, tree = 49.76 MB, solutions = 25)
 142478 81004        cutoff         2.26769e+08   2.25673e+08  1592365    0.48%
 142479 81003    infeasible         2.26769e+08   2.25673e+08  1592365    0.48%
 142480 81004   2.25673e+08    19   2.26769e+08   2.25673e+08  1592368    0.48%
 142481 81005   2.25673e+08    19   2.26769e+08   2.25673e+08  1592387    0.48%
 142482 81006   2.25673e+08    19   2.26769e+08   2.25673e+08  1592394    0.48%
 142483 81007   2.25673e+08    19   2.26769e+08   2.25673e+08  1592400    0.48%
 142484 81008   2.25673e+08    18   2.26769e+08   2.25673e+08  1592401    0.48%
 142485 81009   2.25673e+08    20   2.26769e+08   2.25673e+08  1592442    0.48%
 142486 81010   2.25673e+08    24   2.26769e+08   2.25673e+08  1592489    0.48%
 142487 81011   2.25673e+08    22   2.26769e+08   2.25673e+08  1592497    0.48%
Elapsed time = 66.05 sec. (77528.88 ticks, tree = 51.88 MB, solutions = 25)
 148479 83926        cutoff         2.26769e+08   2.25673e+08  1672400    0.48%
 148480 83927   2.25673e+08    21   2.26769e+08   2.25673e+08  1672401    0.48%
 148481 83928   2.25673e+08    20   2.26769e+08   2.25673e+08  1672402    0.48%
 148482 83929   2.25673e+08    21   2.26769e+08   2.25673e+08  1672403    0.48%
 148483 83928        cutoff         2.26769e+08   2.25673e+08  1672422    0.48%
 148484 83929   2.25673e+08    20   2.26769e+08   2.25673e+08  1672423    0.48%
 148485 83930   2.25673e+08    21   2.26769e+08   2.25673e+08  1672429    0.48%
 148486 83931   2.26634e+08    18   2.26769e+08   2.25673e+08  1672495    0.48%
 148487 83932   2.26634e+08    20   2.26769e+08   2.25673e+08  1672552    0.48%
 148488 83933   2.26634e+08    18   2.26769e+08   2.25673e+08  1672553    0.48%
Elapsed time = 69.51 sec. (81349.57 ticks, tree = 53.70 MB, solutions = 25)
 154849 86374   2.25673e+08    22   2.26769e+08   2.25673e+08  1752945    0.48%
 154850 86375   2.25673e+08    23   2.26769e+08   2.25673e+08  1752946    0.48%
 154851 86376   2.25673e+08    26   2.26769e+08   2.25673e+08  1752985    0.48%
 154852 86377   2.25673e+08    24   2.26769e+08   2.25673e+08  1753007    0.48%
 154853 86378   2.25673e+08    20   2.26769e+08   2.25673e+08  1753008    0.48%
 154854 86379   2.25673e+08    20   2.26769e+08   2.25673e+08  1753014    0.48%
 154855 86380   2.25673e+08    24   2.26769e+08   2.25673e+08  1753028    0.48%
 154856 86381   2.25673e+08    22   2.26769e+08   2.25673e+08  1753030    0.48%
 154857 86382   2.25673e+08    19   2.26769e+08   2.25673e+08  1753049    0.48%
 154858 86383   2.25673e+08    18   2.26769e+08   2.25673e+08  1753058    0.48%
Elapsed time = 72.96 sec. (85179.50 ticks, tree = 55.24 MB, solutions = 25)
 162532 92542        cutoff         2.26769e+08   2.25673e+08  1829901    0.48%
 162533 92541        cutoff         2.26769e+08   2.25673e+08  1829984    0.48%
 162534 92542   2.25673e+08    19   2.26769e+08   2.25673e+08  1830083    0.48%
 162535 92543   2.25673e+08    22   2.26769e+08   2.25673e+08  1830127    0.48%
 162536 92544   2.25673e+08    25   2.26769e+08   2.25673e+08  1830133    0.48%
 162537 92545   2.25673e+08    20   2.26769e+08   2.25673e+08  1830153    0.48%
 162538 92546   2.25673e+08    23   2.26769e+08   2.25673e+08  1830226    0.48%
 162539 92547   2.25802e+08    28   2.26769e+08   2.25673e+08  1830260    0.48%
 162540 92548   2.25812e+08    28   2.26769e+08   2.25673e+08  1830261    0.48%
 162541 92549   2.25821e+08    28   2.26769e+08   2.25673e+08  1830265    0.48%
Elapsed time = 76.29 sec. (89008.60 ticks, tree = 59.03 MB, solutions = 25)
 167339 95361   2.25673e+08    24   2.26769e+08   2.25673e+08  1922747    0.48%
 167340 95362   2.25673e+08    22   2.26769e+08   2.25673e+08  1922767    0.48%
 167341 95362   2.26159e+08    30   2.26769e+08   2.25673e+08  1922822    0.48%
 167342 95361    infeasible         2.26769e+08   2.25673e+08  1922822    0.48%
 167343 95362   2.25673e+08    19   2.26769e+08   2.25673e+08  1922855    0.48%
 167344 95363   2.25673e+08    20   2.26769e+08   2.25673e+08  1922877    0.48%
 167345 95364   2.25673e+08    25   2.26769e+08   2.25673e+08  1922935    0.48%
 167346 95365   2.25673e+08    23   2.26769e+08   2.25673e+08  1922960    0.48%
 167347 95366   2.25673e+08    25   2.26769e+08   2.25673e+08  1922988    0.48%
 167348 95367   2.25673e+08    21   2.26769e+08   2.25673e+08  1922997    0.48%
Elapsed time = 79.81 sec. (92836.80 ticks, tree = 60.77 MB, solutions = 25)
 174807 100084   2.25673e+08    18   2.26769e+08   2.25673e+08  2003611    0.48%
 174808 100085   2.25673e+08    16   2.26769e+08   2.25673e+08  2003624    0.48%
 174809 100086   2.25673e+08    19   2.26769e+08   2.25673e+08  2003641    0.48%
 174810 100087   2.25673e+08    17   2.26769e+08   2.25673e+08  2003642    0.48%
 174811 100088   2.25673e+08    19   2.26769e+08   2.25673e+08  2003675    0.48%
 174812 100089   2.25673e+08    18   2.26769e+08   2.25673e+08  2003676    0.48%
 174813 100090   2.25673e+08    16   2.26769e+08   2.25673e+08  2003677    0.48%
 174814 100091   2.25673e+08    16   2.26769e+08   2.25673e+08  2003678    0.48%
 174815 100092   2.25673e+08    16   2.26769e+08   2.25673e+08  2003679    0.48%
 174816 100093   2.25673e+08    16   2.26769e+08   2.25673e+08  2003680    0.48%
Elapsed time = 83.21 sec. (96654.78 ticks, tree = 63.62 MB, solutions = 25)
 180994 103109   2.25673e+08    20   2.26769e+08   2.25673e+08  2091081    0.48%
 180995 103110   2.25673e+08    19   2.26769e+08   2.25673e+08  2091082    0.48%
 180996 103111   2.25673e+08    20   2.26769e+08   2.25673e+08  2091084    0.48%
 180997 103112   2.25673e+08    19   2.26769e+08   2.25673e+08  2091087    0.48%
 180998 103112   2.25673e+08    22   2.26769e+08   2.25673e+08  2091094    0.48%
 180999 103113   2.25673e+08    20   2.26769e+08   2.25673e+08  2091098    0.48%
 181000 103114   2.25673e+08    19   2.26769e+08   2.25673e+08  2091106    0.48%
 181001 103115   2.25673e+08    19   2.26769e+08   2.25673e+08  2091119    0.48%
 181002 103116   2.25673e+08    21   2.26769e+08   2.25673e+08  2091120    0.48%
 181003 103117   2.25673e+08    19   2.26769e+08   2.25673e+08  2091121    0.48%
Elapsed time = 86.82 sec. (100602.42 ticks, tree = 65.51 MB, solutions = 25)
 188175 105939        cutoff         2.26769e+08   2.25673e+08  2176862    0.48%
 188176 105938        cutoff         2.26769e+08   2.25673e+08  2177016    0.48%
 188177 105939   2.25673e+08    20   2.26769e+08   2.25673e+08  2177041    0.48%
 188178 105940   2.25673e+08    24   2.26769e+08   2.25673e+08  2177074    0.48%
 188179 105941   2.25673e+08    27   2.26769e+08   2.25673e+08  2177077    0.48%
 188180 105942   2.25673e+08    24   2.26769e+08   2.25673e+08  2177080    0.48%
 188181 105943   2.25673e+08    24   2.26769e+08   2.25673e+08  2177093    0.48%
 188182 105944   2.25673e+08    27   2.26769e+08   2.25673e+08  2177100    0.48%
 188183 105945   2.25673e+08    27   2.26769e+08   2.25673e+08  2177101    0.48%
 188184 105946   2.25673e+08    27   2.26769e+08   2.25673e+08  2177103    0.48%
Elapsed time = 90.26 sec. (104429.22 ticks, tree = 67.24 MB, solutions = 25)
 190716 107172    infeasible         2.26769e+08   2.25673e+08  2221844    0.48%
 190717 107171        cutoff         2.26769e+08   2.25673e+08  2221851    0.48%
 190718 107170        cutoff         2.26769e+08   2.25673e+08  2221873    0.48%
 190719 107171   2.25673e+08    18   2.26769e+08   2.25673e+08  2221933    0.48%
 190720 107172   2.25673e+08    19   2.26769e+08   2.25673e+08  2221973    0.48%
 190721 107173   2.25673e+08    19   2.26769e+08   2.25673e+08  2221995    0.48%
 190722 107174   2.25673e+08    19   2.26769e+08   2.25673e+08  2222015    0.48%
 190723 107175   2.25673e+08    20   2.26769e+08   2.25673e+08  2222016    0.48%
 190724 107176   2.25673e+08    19   2.26769e+08   2.25673e+08  2222017    0.48%
 190725 107177   2.25673e+08    18   2.26769e+08   2.25673e+08  2222044    0.48%
Elapsed time = 93.59 sec. (108254.00 ticks, tree = 68.01 MB, solutions = 25)
 194105 108531   2.26026e+08    38   2.26769e+08   2.25673e+08  2300029    0.48%
 194106 108530    infeasible         2.26769e+08   2.25673e+08  2300029    0.48%
 194107 108529        cutoff         2.26769e+08   2.25673e+08  2300059    0.48%
 194108 108528        cutoff         2.26769e+08   2.25673e+08  2300126    0.48%
 194109 108527    infeasible         2.26769e+08   2.25673e+08  2300191    0.48%
 194110 108526        cutoff         2.26769e+08   2.25673e+08  2300297    0.48%
 194111 108525        cutoff         2.26769e+08   2.25673e+08  2300298    0.48%
 194112 108524        cutoff         2.26769e+08   2.25673e+08  2300329    0.48%
 194113 108523        cutoff         2.26769e+08   2.25673e+08  2300336    0.48%
 194114 108522    infeasible         2.26769e+08   2.25673e+08  2300409    0.48%
Elapsed time = 97.04 sec. (112082.69 ticks, tree = 68.86 MB, solutions = 25)

Cover cuts applied:  466
Mixed integer rounding cuts applied:  6
Gomory fractional cuts applied:  5

Root node processing (before b&c):
  Real time             =    0.06 sec. (66.49 ticks)
Sequential b&c:
  Real time             =   99.94 sec. (115235.34 ticks)
                          ------------
Total (root+branch&cut) =  100.00 sec. (115301.83 ticks)

Solution pool: 25 solutions saved.

MIP - Time limit exceeded, integer feasible:  Objective =  2.2676886100e+08
Current MIP best bound =  2.2567326400e+08 (gap = 1.0956e+06, 0.48%)
Solution time =  100.00 sec.  Iterations = 2367411  Nodes = 198057 (110343)
Deterministic time = 115301.83 ticks  (1153.02 ticks/sec)


Incumbent solution written to file '/tmp/tmpYghdWV.cplex.sol'.
